(set-option :produce-models true)
(set-logic QF_LRA)
(set-info :notes | Strip-packing problem.|)
(declare-fun x0 () Real)
(declare-fun y0 () Real)
(declare-fun x1 () Real)
(declare-fun y1 () Real)
(declare-fun x2 () Real)
(declare-fun y2 () Real)
(declare-fun x3 () Real)
(declare-fun y3 () Real)
(declare-fun x4 () Real)
(declare-fun y4 () Real)
(declare-fun x5 () Real)
(declare-fun y5 () Real)
(declare-fun x6 () Real)
(declare-fun y6 () Real)
(declare-fun x7 () Real)
(declare-fun y7 () Real)
(declare-fun x8 () Real)
(declare-fun y8 () Real)
(declare-fun x9 () Real)
(declare-fun y9 () Real)
(declare-fun x10 () Real)
(declare-fun y10 () Real)
(declare-fun x11 () Real)
(declare-fun y11 () Real)
(declare-fun x12 () Real)
(declare-fun y12 () Real)
(declare-fun x13 () Real)
(declare-fun y13 () Real)
(declare-fun x14 () Real)
(declare-fun y14 () Real)
(declare-fun z () Real)
(declare-fun c () Real)
(assert (and (= c z) (and (>= x0 0) 
(and (>= y0 0) 
(and (>= x1 0) 
(and (>= y1 0) 
(and (>= x2 0) 
(and (>= y2 0) 
(and (>= x3 0) 
(and (>= y3 0) 
(and (>= x4 0) 
(and (>= y4 0) 
(and (>= x5 0) 
(and (>= y5 0) 
(and (>= x6 0) 
(and (>= y6 0) 
(and (>= x7 0) 
(and (>= y7 0) 
(and (>= x8 0) 
(and (>= y8 0) 
(and (>= x9 0) 
(and (>= y9 0) 
(and (>= x10 0) 
(and (>= y10 0) 
(and (>= x11 0) 
(and (>= y11 0) 
(and (>= x12 0) 
(and (>= y12 0) 
(and (>= x13 0) 
(and (>= y13 0) 
(and (>= x14 0) 
(and (>= y14 0) 
(and (>= z 0) 
(and (>= c 0) 
(and (<= (+ x0 0.0282449882) z) 
(and (<= 0.9712083812 y0) 
(and (<= y0 1.9364916731) 
(and (<= x0 (- 4.3227284619 0.0282449882)) 
(and (>= x0 0) 
(and (<= (+ x1 0.2355888525) z) 
(and (<= 0.9582637196 y1) 
(and (<= y1 1.9364916731) 
(and (<= x1 (- 4.3227284619 0.2355888525)) 
(and (>= x1 0) 
(and (<= (+ x2 0.2527087338) z) 
(and (<= 0.7972473677 y2) 
(and (<= y2 1.9364916731) 
(and (<= x2 (- 4.3227284619 0.2527087338)) 
(and (>= x2 0) 
(and (<= (+ x3 0.0621054779) z) 
(and (<= 0.7777183045 y3) 
(and (<= y3 1.9364916731) 
(and (<= x3 (- 4.3227284619 0.0621054779)) 
(and (>= x3 0) 
(and (<= (+ x4 0.0132424701) z) 
(and (<= 0.5908593333 y4) 
(and (<= y4 1.9364916731) 
(and (<= x4 (- 4.3227284619 0.0132424701)) 
(and (>= x4 0) 
(and (<= (+ x5 0.3166050566) z) 
(and (<= 0.4972625362 y5) 
(and (<= y5 1.9364916731) 
(and (<= x5 (- 4.3227284619 0.3166050566)) 
(and (>= x5 0) 
(and (<= (+ x6 0.7065401461) z) 
(and (<= 0.4564916675 y6) 
(and (<= y6 1.9364916731) 
(and (<= x6 (- 4.3227284619 0.7065401461)) 
(and (>= x6 0) 
(and (<= (+ x7 0.8705886363) z) 
(and (<= 0.4025421256 y7) 
(and (<= y7 1.9364916731) 
(and (<= x7 (- 4.3227284619 0.8705886363)) 
(and (>= x7 0) 
(and (<= (+ x8 0.7948413459) z) 
(and (<= 0.3992428739 y8) 
(and (<= y8 1.9364916731) 
(and (<= x8 (- 4.3227284619 0.7948413459)) 
(and (>= x8 0) 
(and (<= (+ x9 0.9432427129) z) 
(and (<= 0.2236713994 y9) 
(and (<= y9 1.9364916731) 
(and (<= x9 (- 4.3227284619 0.9432427129)) 
(and (>= x9 0) 
(and (<= (+ x10 0.1558565482) z) 
(and (<= 0.2136955657 y10) 
(and (<= y10 1.9364916731) 
(and (<= x10 (- 4.3227284619 0.1558565482)) 
(and (>= x10 0) 
(and (<= (+ x11 0.635721257) z) 
(and (<= 0.1723105491 y11) 
(and (<= y11 1.9364916731) 
(and (<= x11 (- 4.3227284619 0.635721257)) 
(and (>= x11 0) 
(and (<= (+ x12 0.3645562945) z) 
(and (<= 0.0462673512 y12) 
(and (<= y12 1.9364916731) 
(and (<= x12 (- 4.3227284619 0.3645562945)) 
(and (>= x12 0) 
(and (<= (+ x13 0.1611409801) z) 
(and (<= 0.0433261887 y13) 
(and (<= y13 1.9364916731) 
(and (<= x13 (- 4.3227284619 0.1611409801)) 
(and (>= x13 0) 
(and (<= (+ x14 0.9692093355) z) 
(and (<= 0.0314939042 y14) 
(and (<= y14 1.9364916731) 
(and (<= x14 (- 4.3227284619 0.9692093355)) 
(and (>= x14 0) 
(and (<= c 4.3227284619) 
(and (or (<= (+ x0 0.0282449882) x1) (or (<= (+ x1 0.2355888525) x0) (or (>= (- y0 0.9712083812) y1) (or (>= (- y1 0.9582637196) y0))))) 
(and (or (<= (+ x0 0.0282449882) x2) (or (<= (+ x2 0.2527087338) x0) (or (>= (- y0 0.9712083812) y2) (or (>= (- y2 0.7972473677) y0))))) 
(and (or (<= (+ x0 0.0282449882) x3) (or (<= (+ x3 0.0621054779) x0) (or (>= (- y0 0.9712083812) y3) (or (>= (- y3 0.7777183045) y0))))) 
(and (or (<= (+ x0 0.0282449882) x4) (or (<= (+ x4 0.0132424701) x0) (or (>= (- y0 0.9712083812) y4) (or (>= (- y4 0.5908593333) y0))))) 
(and (or (<= (+ x0 0.0282449882) x5) (or (<= (+ x5 0.3166050566) x0) (or (>= (- y0 0.9712083812) y5) (or (>= (- y5 0.4972625362) y0))))) 
(and (or (<= (+ x0 0.0282449882) x6) (or (<= (+ x6 0.7065401461) x0) (or (>= (- y0 0.9712083812) y6) (or (>= (- y6 0.4564916675) y0))))) 
(and (or (<= (+ x0 0.0282449882) x7) (or (<= (+ x7 0.8705886363) x0) (or (>= (- y0 0.9712083812) y7) (or (>= (- y7 0.4025421256) y0))))) 
(and (or (<= (+ x0 0.0282449882) x8) (or (<= (+ x8 0.7948413459) x0) (or (>= (- y0 0.9712083812) y8) (or (>= (- y8 0.3992428739) y0))))) 
(and (or (<= (+ x0 0.0282449882) x9) (or (<= (+ x9 0.9432427129) x0) (or (>= (- y0 0.9712083812) y9) (or (>= (- y9 0.2236713994) y0))))) 
(and (or (<= (+ x0 0.0282449882) x10) (or (<= (+ x10 0.1558565482) x0) (or (>= (- y0 0.9712083812) y10) (or (>= (- y10 0.2136955657) y0))))) 
(and (or (<= (+ x0 0.0282449882) x11) (or (<= (+ x11 0.635721257) x0) (or (>= (- y0 0.9712083812) y11) (or (>= (- y11 0.1723105491) y0))))) 
(and (or (<= (+ x0 0.0282449882) x12) (or (<= (+ x12 0.3645562945) x0) (or (>= (- y0 0.9712083812) y12) (or (>= (- y12 0.0462673512) y0))))) 
(and (or (<= (+ x0 0.0282449882) x13) (or (<= (+ x13 0.1611409801) x0) (or (>= (- y0 0.9712083812) y13) (or (>= (- y13 0.0433261887) y0))))) 
(and (or (<= (+ x0 0.0282449882) x14) (or (<= (+ x14 0.9692093355) x0) (or (>= (- y0 0.9712083812) y14) (or (>= (- y14 0.0314939042) y0))))) 
(and (or (<= (+ x1 0.2355888525) x2) (or (<= (+ x2 0.2527087338) x1) (or (>= (- y1 0.9582637196) y2) (or (>= (- y2 0.7972473677) y1))))) 
(and (or (<= (+ x1 0.2355888525) x3) (or (<= (+ x3 0.0621054779) x1) (or (>= (- y1 0.9582637196) y3) (or (>= (- y3 0.7777183045) y1))))) 
(and (or (<= (+ x1 0.2355888525) x4) (or (<= (+ x4 0.0132424701) x1) (or (>= (- y1 0.9582637196) y4) (or (>= (- y4 0.5908593333) y1))))) 
(and (or (<= (+ x1 0.2355888525) x5) (or (<= (+ x5 0.3166050566) x1) (or (>= (- y1 0.9582637196) y5) (or (>= (- y5 0.4972625362) y1))))) 
(and (or (<= (+ x1 0.2355888525) x6) (or (<= (+ x6 0.7065401461) x1) (or (>= (- y1 0.9582637196) y6) (or (>= (- y6 0.4564916675) y1))))) 
(and (or (<= (+ x1 0.2355888525) x7) (or (<= (+ x7 0.8705886363) x1) (or (>= (- y1 0.9582637196) y7) (or (>= (- y7 0.4025421256) y1))))) 
(and (or (<= (+ x1 0.2355888525) x8) (or (<= (+ x8 0.7948413459) x1) (or (>= (- y1 0.9582637196) y8) (or (>= (- y8 0.3992428739) y1))))) 
(and (or (<= (+ x1 0.2355888525) x9) (or (<= (+ x9 0.9432427129) x1) (or (>= (- y1 0.9582637196) y9) (or (>= (- y9 0.2236713994) y1))))) 
(and (or (<= (+ x1 0.2355888525) x10) (or (<= (+ x10 0.1558565482) x1) (or (>= (- y1 0.9582637196) y10) (or (>= (- y10 0.2136955657) y1))))) 
(and (or (<= (+ x1 0.2355888525) x11) (or (<= (+ x11 0.635721257) x1) (or (>= (- y1 0.9582637196) y11) (or (>= (- y11 0.1723105491) y1))))) 
(and (or (<= (+ x1 0.2355888525) x12) (or (<= (+ x12 0.3645562945) x1) (or (>= (- y1 0.9582637196) y12) (or (>= (- y12 0.0462673512) y1))))) 
(and (or (<= (+ x1 0.2355888525) x13) (or (<= (+ x13 0.1611409801) x1) (or (>= (- y1 0.9582637196) y13) (or (>= (- y13 0.0433261887) y1))))) 
(and (or (<= (+ x1 0.2355888525) x14) (or (<= (+ x14 0.9692093355) x1) (or (>= (- y1 0.9582637196) y14) (or (>= (- y14 0.0314939042) y1))))) 
(and (or (<= (+ x2 0.2527087338) x3) (or (<= (+ x3 0.0621054779) x2) (or (>= (- y2 0.7972473677) y3) (or (>= (- y3 0.7777183045) y2))))) 
(and (or (<= (+ x2 0.2527087338) x4) (or (<= (+ x4 0.0132424701) x2) (or (>= (- y2 0.7972473677) y4) (or (>= (- y4 0.5908593333) y2))))) 
(and (or (<= (+ x2 0.2527087338) x5) (or (<= (+ x5 0.3166050566) x2) (or (>= (- y2 0.7972473677) y5) (or (>= (- y5 0.4972625362) y2))))) 
(and (or (<= (+ x2 0.2527087338) x6) (or (<= (+ x6 0.7065401461) x2) (or (>= (- y2 0.7972473677) y6) (or (>= (- y6 0.4564916675) y2))))) 
(and (or (<= (+ x2 0.2527087338) x7) (or (<= (+ x7 0.8705886363) x2) (or (>= (- y2 0.7972473677) y7) (or (>= (- y7 0.4025421256) y2))))) 
(and (or (<= (+ x2 0.2527087338) x8) (or (<= (+ x8 0.7948413459) x2) (or (>= (- y2 0.7972473677) y8) (or (>= (- y8 0.3992428739) y2))))) 
(and (or (<= (+ x2 0.2527087338) x9) (or (<= (+ x9 0.9432427129) x2) (or (>= (- y2 0.7972473677) y9) (or (>= (- y9 0.2236713994) y2))))) 
(and (or (<= (+ x2 0.2527087338) x10) (or (<= (+ x10 0.1558565482) x2) (or (>= (- y2 0.7972473677) y10) (or (>= (- y10 0.2136955657) y2))))) 
(and (or (<= (+ x2 0.2527087338) x11) (or (<= (+ x11 0.635721257) x2) (or (>= (- y2 0.7972473677) y11) (or (>= (- y11 0.1723105491) y2))))) 
(and (or (<= (+ x2 0.2527087338) x12) (or (<= (+ x12 0.3645562945) x2) (or (>= (- y2 0.7972473677) y12) (or (>= (- y12 0.0462673512) y2))))) 
(and (or (<= (+ x2 0.2527087338) x13) (or (<= (+ x13 0.1611409801) x2) (or (>= (- y2 0.7972473677) y13) (or (>= (- y13 0.0433261887) y2))))) 
(and (or (<= (+ x2 0.2527087338) x14) (or (<= (+ x14 0.9692093355) x2) (or (>= (- y2 0.7972473677) y14) (or (>= (- y14 0.0314939042) y2))))) 
(and (or (<= (+ x3 0.0621054779) x4) (or (<= (+ x4 0.0132424701) x3) (or (>= (- y3 0.7777183045) y4) (or (>= (- y4 0.5908593333) y3))))) 
(and (or (<= (+ x3 0.0621054779) x5) (or (<= (+ x5 0.3166050566) x3) (or (>= (- y3 0.7777183045) y5) (or (>= (- y5 0.4972625362) y3))))) 
(and (or (<= (+ x3 0.0621054779) x6) (or (<= (+ x6 0.7065401461) x3) (or (>= (- y3 0.7777183045) y6) (or (>= (- y6 0.4564916675) y3))))) 
(and (or (<= (+ x3 0.0621054779) x7) (or (<= (+ x7 0.8705886363) x3) (or (>= (- y3 0.7777183045) y7) (or (>= (- y7 0.4025421256) y3))))) 
(and (or (<= (+ x3 0.0621054779) x8) (or (<= (+ x8 0.7948413459) x3) (or (>= (- y3 0.7777183045) y8) (or (>= (- y8 0.3992428739) y3))))) 
(and (or (<= (+ x3 0.0621054779) x9) (or (<= (+ x9 0.9432427129) x3) (or (>= (- y3 0.7777183045) y9) (or (>= (- y9 0.2236713994) y3))))) 
(and (or (<= (+ x3 0.0621054779) x10) (or (<= (+ x10 0.1558565482) x3) (or (>= (- y3 0.7777183045) y10) (or (>= (- y10 0.2136955657) y3))))) 
(and (or (<= (+ x3 0.0621054779) x11) (or (<= (+ x11 0.635721257) x3) (or (>= (- y3 0.7777183045) y11) (or (>= (- y11 0.1723105491) y3))))) 
(and (or (<= (+ x3 0.0621054779) x12) (or (<= (+ x12 0.3645562945) x3) (or (>= (- y3 0.7777183045) y12) (or (>= (- y12 0.0462673512) y3))))) 
(and (or (<= (+ x3 0.0621054779) x13) (or (<= (+ x13 0.1611409801) x3) (or (>= (- y3 0.7777183045) y13) (or (>= (- y13 0.0433261887) y3))))) 
(and (or (<= (+ x3 0.0621054779) x14) (or (<= (+ x14 0.9692093355) x3) (or (>= (- y3 0.7777183045) y14) (or (>= (- y14 0.0314939042) y3))))) 
(and (or (<= (+ x4 0.0132424701) x5) (or (<= (+ x5 0.3166050566) x4) (or (>= (- y4 0.5908593333) y5) (or (>= (- y5 0.4972625362) y4))))) 
(and (or (<= (+ x4 0.0132424701) x6) (or (<= (+ x6 0.7065401461) x4) (or (>= (- y4 0.5908593333) y6) (or (>= (- y6 0.4564916675) y4))))) 
(and (or (<= (+ x4 0.0132424701) x7) (or (<= (+ x7 0.8705886363) x4) (or (>= (- y4 0.5908593333) y7) (or (>= (- y7 0.4025421256) y4))))) 
(and (or (<= (+ x4 0.0132424701) x8) (or (<= (+ x8 0.7948413459) x4) (or (>= (- y4 0.5908593333) y8) (or (>= (- y8 0.3992428739) y4))))) 
(and (or (<= (+ x4 0.0132424701) x9) (or (<= (+ x9 0.9432427129) x4) (or (>= (- y4 0.5908593333) y9) (or (>= (- y9 0.2236713994) y4))))) 
(and (or (<= (+ x4 0.0132424701) x10) (or (<= (+ x10 0.1558565482) x4) (or (>= (- y4 0.5908593333) y10) (or (>= (- y10 0.2136955657) y4))))) 
(and (or (<= (+ x4 0.0132424701) x11) (or (<= (+ x11 0.635721257) x4) (or (>= (- y4 0.5908593333) y11) (or (>= (- y11 0.1723105491) y4))))) 
(and (or (<= (+ x4 0.0132424701) x12) (or (<= (+ x12 0.3645562945) x4) (or (>= (- y4 0.5908593333) y12) (or (>= (- y12 0.0462673512) y4))))) 
(and (or (<= (+ x4 0.0132424701) x13) (or (<= (+ x13 0.1611409801) x4) (or (>= (- y4 0.5908593333) y13) (or (>= (- y13 0.0433261887) y4))))) 
(and (or (<= (+ x4 0.0132424701) x14) (or (<= (+ x14 0.9692093355) x4) (or (>= (- y4 0.5908593333) y14) (or (>= (- y14 0.0314939042) y4))))) 
(and (or (<= (+ x5 0.3166050566) x6) (or (<= (+ x6 0.7065401461) x5) (or (>= (- y5 0.4972625362) y6) (or (>= (- y6 0.4564916675) y5))))) 
(and (or (<= (+ x5 0.3166050566) x7) (or (<= (+ x7 0.8705886363) x5) (or (>= (- y5 0.4972625362) y7) (or (>= (- y7 0.4025421256) y5))))) 
(and (or (<= (+ x5 0.3166050566) x8) (or (<= (+ x8 0.7948413459) x5) (or (>= (- y5 0.4972625362) y8) (or (>= (- y8 0.3992428739) y5))))) 
(and (or (<= (+ x5 0.3166050566) x9) (or (<= (+ x9 0.9432427129) x5) (or (>= (- y5 0.4972625362) y9) (or (>= (- y9 0.2236713994) y5))))) 
(and (or (<= (+ x5 0.3166050566) x10) (or (<= (+ x10 0.1558565482) x5) (or (>= (- y5 0.4972625362) y10) (or (>= (- y10 0.2136955657) y5))))) 
(and (or (<= (+ x5 0.3166050566) x11) (or (<= (+ x11 0.635721257) x5) (or (>= (- y5 0.4972625362) y11) (or (>= (- y11 0.1723105491) y5))))) 
(and (or (<= (+ x5 0.3166050566) x12) (or (<= (+ x12 0.3645562945) x5) (or (>= (- y5 0.4972625362) y12) (or (>= (- y12 0.0462673512) y5))))) 
(and (or (<= (+ x5 0.3166050566) x13) (or (<= (+ x13 0.1611409801) x5) (or (>= (- y5 0.4972625362) y13) (or (>= (- y13 0.0433261887) y5))))) 
(and (or (<= (+ x5 0.3166050566) x14) (or (<= (+ x14 0.9692093355) x5) (or (>= (- y5 0.4972625362) y14) (or (>= (- y14 0.0314939042) y5))))) 
(and (or (<= (+ x6 0.7065401461) x7) (or (<= (+ x7 0.8705886363) x6) (or (>= (- y6 0.4564916675) y7) (or (>= (- y7 0.4025421256) y6))))) 
(and (or (<= (+ x6 0.7065401461) x8) (or (<= (+ x8 0.7948413459) x6) (or (>= (- y6 0.4564916675) y8) (or (>= (- y8 0.3992428739) y6))))) 
(and (or (<= (+ x6 0.7065401461) x9) (or (<= (+ x9 0.9432427129) x6) (or (>= (- y6 0.4564916675) y9) (or (>= (- y9 0.2236713994) y6))))) 
(and (or (<= (+ x6 0.7065401461) x10) (or (<= (+ x10 0.1558565482) x6) (or (>= (- y6 0.4564916675) y10) (or (>= (- y10 0.2136955657) y6))))) 
(and (or (<= (+ x6 0.7065401461) x11) (or (<= (+ x11 0.635721257) x6) (or (>= (- y6 0.4564916675) y11) (or (>= (- y11 0.1723105491) y6))))) 
(and (or (<= (+ x6 0.7065401461) x12) (or (<= (+ x12 0.3645562945) x6) (or (>= (- y6 0.4564916675) y12) (or (>= (- y12 0.0462673512) y6))))) 
(and (or (<= (+ x6 0.7065401461) x13) (or (<= (+ x13 0.1611409801) x6) (or (>= (- y6 0.4564916675) y13) (or (>= (- y13 0.0433261887) y6))))) 
(and (or (<= (+ x6 0.7065401461) x14) (or (<= (+ x14 0.9692093355) x6) (or (>= (- y6 0.4564916675) y14) (or (>= (- y14 0.0314939042) y6))))) 
(and (or (<= (+ x7 0.8705886363) x8) (or (<= (+ x8 0.7948413459) x7) (or (>= (- y7 0.4025421256) y8) (or (>= (- y8 0.3992428739) y7))))) 
(and (or (<= (+ x7 0.8705886363) x9) (or (<= (+ x9 0.9432427129) x7) (or (>= (- y7 0.4025421256) y9) (or (>= (- y9 0.2236713994) y7))))) 
(and (or (<= (+ x7 0.8705886363) x10) (or (<= (+ x10 0.1558565482) x7) (or (>= (- y7 0.4025421256) y10) (or (>= (- y10 0.2136955657) y7))))) 
(and (or (<= (+ x7 0.8705886363) x11) (or (<= (+ x11 0.635721257) x7) (or (>= (- y7 0.4025421256) y11) (or (>= (- y11 0.1723105491) y7))))) 
(and (or (<= (+ x7 0.8705886363) x12) (or (<= (+ x12 0.3645562945) x7) (or (>= (- y7 0.4025421256) y12) (or (>= (- y12 0.0462673512) y7))))) 
(and (or (<= (+ x7 0.8705886363) x13) (or (<= (+ x13 0.1611409801) x7) (or (>= (- y7 0.4025421256) y13) (or (>= (- y13 0.0433261887) y7))))) 
(and (or (<= (+ x7 0.8705886363) x14) (or (<= (+ x14 0.9692093355) x7) (or (>= (- y7 0.4025421256) y14) (or (>= (- y14 0.0314939042) y7))))) 
(and (or (<= (+ x8 0.7948413459) x9) (or (<= (+ x9 0.9432427129) x8) (or (>= (- y8 0.3992428739) y9) (or (>= (- y9 0.2236713994) y8))))) 
(and (or (<= (+ x8 0.7948413459) x10) (or (<= (+ x10 0.1558565482) x8) (or (>= (- y8 0.3992428739) y10) (or (>= (- y10 0.2136955657) y8))))) 
(and (or (<= (+ x8 0.7948413459) x11) (or (<= (+ x11 0.635721257) x8) (or (>= (- y8 0.3992428739) y11) (or (>= (- y11 0.1723105491) y8))))) 
(and (or (<= (+ x8 0.7948413459) x12) (or (<= (+ x12 0.3645562945) x8) (or (>= (- y8 0.3992428739) y12) (or (>= (- y12 0.0462673512) y8))))) 
(and (or (<= (+ x8 0.7948413459) x13) (or (<= (+ x13 0.1611409801) x8) (or (>= (- y8 0.3992428739) y13) (or (>= (- y13 0.0433261887) y8))))) 
(and (or (<= (+ x8 0.7948413459) x14) (or (<= (+ x14 0.9692093355) x8) (or (>= (- y8 0.3992428739) y14) (or (>= (- y14 0.0314939042) y8))))) 
(and (or (<= (+ x9 0.9432427129) x10) (or (<= (+ x10 0.1558565482) x9) (or (>= (- y9 0.2236713994) y10) (or (>= (- y10 0.2136955657) y9))))) 
(and (or (<= (+ x9 0.9432427129) x11) (or (<= (+ x11 0.635721257) x9) (or (>= (- y9 0.2236713994) y11) (or (>= (- y11 0.1723105491) y9))))) 
(and (or (<= (+ x9 0.9432427129) x12) (or (<= (+ x12 0.3645562945) x9) (or (>= (- y9 0.2236713994) y12) (or (>= (- y12 0.0462673512) y9))))) 
(and (or (<= (+ x9 0.9432427129) x13) (or (<= (+ x13 0.1611409801) x9) (or (>= (- y9 0.2236713994) y13) (or (>= (- y13 0.0433261887) y9))))) 
(and (or (<= (+ x9 0.9432427129) x14) (or (<= (+ x14 0.9692093355) x9) (or (>= (- y9 0.2236713994) y14) (or (>= (- y14 0.0314939042) y9))))) 
(and (or (<= (+ x10 0.1558565482) x11) (or (<= (+ x11 0.635721257) x10) (or (>= (- y10 0.2136955657) y11) (or (>= (- y11 0.1723105491) y10))))) 
(and (or (<= (+ x10 0.1558565482) x12) (or (<= (+ x12 0.3645562945) x10) (or (>= (- y10 0.2136955657) y12) (or (>= (- y12 0.0462673512) y10))))) 
(and (or (<= (+ x10 0.1558565482) x13) (or (<= (+ x13 0.1611409801) x10) (or (>= (- y10 0.2136955657) y13) (or (>= (- y13 0.0433261887) y10))))) 
(and (or (<= (+ x10 0.1558565482) x14) (or (<= (+ x14 0.9692093355) x10) (or (>= (- y10 0.2136955657) y14) (or (>= (- y14 0.0314939042) y10))))) 
(and (or (<= (+ x11 0.635721257) x12) (or (<= (+ x12 0.3645562945) x11) (or (>= (- y11 0.1723105491) y12) (or (>= (- y12 0.0462673512) y11))))) 
(and (or (<= (+ x11 0.635721257) x13) (or (<= (+ x13 0.1611409801) x11) (or (>= (- y11 0.1723105491) y13) (or (>= (- y13 0.0433261887) y11))))) 
(and (or (<= (+ x11 0.635721257) x14) (or (<= (+ x14 0.9692093355) x11) (or (>= (- y11 0.1723105491) y14) (or (>= (- y14 0.0314939042) y11))))) 
(and (or (<= (+ x12 0.3645562945) x13) (or (<= (+ x13 0.1611409801) x12) (or (>= (- y12 0.0462673512) y13) (or (>= (- y13 0.0433261887) y12))))) 
(and (or (<= (+ x12 0.3645562945) x14) (or (<= (+ x14 0.9692093355) x12) (or (>= (- y12 0.0462673512) y14) (or (>= (- y14 0.0314939042) y12))))) 
(and (or (<= (+ x13 0.1611409801) x14) (or (<= (+ x14 0.9692093355) x13) (or (>= (- y13 0.0433261887) y14) (or (>= (- y14 0.0314939042) y13))))) )))))))))))))))))))))))))))))))))))))))))))))))))))))))))))))))))))))))))))))))))))))))))))))))))))))))))))))))))))))))))))))))))))))))))))))))))))))))))))))))))))))))))))))))))))))))))))))))))))))))))))))))))))))))
(minimize c)
(check-sat)
(get-objectives)
(exit)
